207	42	4	80	
10	10	8	10

0	0	0	0	0	0	4	1	2	3	4
1	2	0	0	0	4	1	7
2	0	0	5	0	5	1	6
3	6	0	0	0	4	1	8
4	5	0	0	0	7	1	5
5	6	0	0	0	4	1	17
6	1	0	0	0	3	2	9	16
7	0	8	0	0	10	1	10
8	0	1	0	0	7	1	14
9	9	0	0	0	5	1	15
10	0	0	0	3	1	1	11
11	0	4	0	0	2	1	12
12	0	3	0	0	9	1	13
13	0	0	3	0	3	1	18
14	0	9	0	0	5	1	16
15	0	6	0	0	4	1	35
16	0	0	0	10	4	1	19
17	0	0	3	0	1	1	23
18	0	3	0	0	3	1	20
19	10	0	0	0	8	1	21
20	0	0	6	0	5	1	22
21	5	0	0	0	4	1	24
22	0	0	0	4	4	1	30
23	0	0	0	5	6	1	25
24	0	10	0	0	9	1	26
25	2	0	0	0	4	1	28
26	0	1	0	0	9	1	27
27	0	0	6	0	9	1	32
28	0	0	0	1	3	1	29
29	0	0	0	5	10	1	40
30	0	0	0	5	3	1	31
31	0	0	0	2	7	1	37
32	0	1	0	0	1	1	33
33	0	5	0	0	9	1	34
34	0	0	0	9	3	1	38
35	0	0	0	4	9	1	36
36	0	0	1	0	2	1	39
37	0	9	0	0	8	1	41
38	0	0	8	0	5	1	41
39	6	0	0	0	3	1	41
40	1	0	0	0	5	1	41
41	0	0	0	0	0	0
